benchmarks/2018.NIA-sorin/_source/non-lin-ineq3/non-lin-ineq-3.desugared.sol
i*i <= k && i <= 1000
